; Benchmark for LTL-sketching problem
(set-logic QF_UF)
(set-info :status unknown)
(declare-fun z_0_0_0 () Bool)
(declare-fun z_0_1_0 () Bool)
(declare-fun z_0_2_0 () Bool)
(declare-fun z_0_3_0 () Bool)
(declare-fun z_0_4_0 () Bool)
(declare-fun z_0_5_0 () Bool)
(declare-fun z_0_6_0 () Bool)
(declare-fun z_0_7_0 () Bool)
(declare-fun z_0_8_0 () Bool)
(declare-fun z_0_9_0 () Bool)
(declare-fun z_0_10_0 () Bool)
(declare-fun z_0_11_0 () Bool)
(declare-fun z_0_12_0 () Bool)
(declare-fun z_0_13_0 () Bool)
(declare-fun z_0_14_0 () Bool)
(declare-fun z_0_15_0 () Bool)
(declare-fun z_0_16_0 () Bool)
(declare-fun z_0_17_0 () Bool)
(declare-fun z_0_18_0 () Bool)
(declare-fun z_0_19_0 () Bool)
(declare-fun z_0_20_0 () Bool)
(declare-fun z_0_21_0 () Bool)
(declare-fun z_0_22_0 () Bool)
(declare-fun z_0_23_0 () Bool)
(declare-fun z_0_24_0 () Bool)
(declare-fun z_0_25_0 () Bool)
(declare-fun z_0_26_0 () Bool)
(declare-fun z_0_27_0 () Bool)
(declare-fun z_0_28_0 () Bool)
(declare-fun z_0_29_0 () Bool)
(declare-fun z_0_30_0 () Bool)
(declare-fun z_0_31_0 () Bool)
(declare-fun z_0_32_0 () Bool)
(declare-fun z_0_33_0 () Bool)
(declare-fun z_0_34_0 () Bool)
(declare-fun z_0_35_0 () Bool)
(declare-fun z_0_36_0 () Bool)
(declare-fun z_0_37_0 () Bool)
(declare-fun z_0_38_0 () Bool)
(declare-fun z_0_39_0 () Bool)
(declare-fun z_0_40_0 () Bool)
(declare-fun z_0_41_0 () Bool)
(declare-fun z_0_42_0 () Bool)
(declare-fun z_0_43_0 () Bool)
(declare-fun z_0_44_0 () Bool)
(declare-fun z_0_45_0 () Bool)
(declare-fun z_0_46_0 () Bool)
(declare-fun z_0_47_0 () Bool)
(declare-fun z_0_48_0 () Bool)
(declare-fun z_0_49_0 () Bool)
(declare-fun z_2_0_0 () Bool)
(declare-fun z_2_1_0 () Bool)
(declare-fun z_2_2_0 () Bool)
(declare-fun z_2_3_0 () Bool)
(declare-fun z_2_4_0 () Bool)
(declare-fun z_2_5_0 () Bool)
(declare-fun z_2_6_0 () Bool)
(declare-fun z_2_7_0 () Bool)
(declare-fun z_2_8_0 () Bool)
(declare-fun z_2_9_0 () Bool)
(declare-fun z_2_10_0 () Bool)
(declare-fun z_2_11_0 () Bool)
(declare-fun z_2_12_0 () Bool)
(declare-fun z_2_13_0 () Bool)
(declare-fun z_2_14_0 () Bool)
(declare-fun z_2_15_0 () Bool)
(declare-fun z_2_16_0 () Bool)
(declare-fun z_2_17_0 () Bool)
(declare-fun z_2_18_0 () Bool)
(declare-fun z_2_19_0 () Bool)
(declare-fun z_2_20_0 () Bool)
(declare-fun z_2_21_0 () Bool)
(declare-fun z_2_22_0 () Bool)
(declare-fun z_2_23_0 () Bool)
(declare-fun z_2_24_0 () Bool)
(declare-fun z_0_25_1 () Bool)
(declare-fun z_2_25_0 () Bool)
(declare-fun z_0_25_2 () Bool)
(declare-fun z_2_25_1 () Bool)
(declare-fun z_2_25_2 () Bool)
(declare-fun z_0_26_1 () Bool)
(declare-fun z_2_26_0 () Bool)
(declare-fun z_0_26_2 () Bool)
(declare-fun z_2_26_1 () Bool)
(declare-fun z_2_26_2 () Bool)
(declare-fun z_0_27_1 () Bool)
(declare-fun z_2_27_0 () Bool)
(declare-fun z_0_27_2 () Bool)
(declare-fun z_2_27_1 () Bool)
(declare-fun z_0_27_3 () Bool)
(declare-fun z_2_27_2 () Bool)
(declare-fun z_2_27_3 () Bool)
(declare-fun z_0_28_1 () Bool)
(declare-fun z_2_28_0 () Bool)
(declare-fun z_0_28_2 () Bool)
(declare-fun z_2_28_1 () Bool)
(declare-fun z_0_28_3 () Bool)
(declare-fun z_2_28_2 () Bool)
(declare-fun z_2_28_3 () Bool)
(declare-fun z_0_29_1 () Bool)
(declare-fun z_2_29_0 () Bool)
(declare-fun z_0_29_2 () Bool)
(declare-fun z_2_29_1 () Bool)
(declare-fun z_0_29_3 () Bool)
(declare-fun z_2_29_2 () Bool)
(declare-fun z_0_29_4 () Bool)
(declare-fun z_2_29_3 () Bool)
(declare-fun z_0_29_5 () Bool)
(declare-fun z_2_29_4 () Bool)
(declare-fun z_0_29_6 () Bool)
(declare-fun z_2_29_5 () Bool)
(declare-fun z_0_29_7 () Bool)
(declare-fun z_2_29_6 () Bool)
(declare-fun z_2_29_7 () Bool)
(declare-fun z_0_30_1 () Bool)
(declare-fun z_2_30_0 () Bool)
(declare-fun z_0_30_2 () Bool)
(declare-fun z_2_30_1 () Bool)
(declare-fun z_0_30_3 () Bool)
(declare-fun z_2_30_2 () Bool)
(declare-fun z_0_30_4 () Bool)
(declare-fun z_2_30_3 () Bool)
(declare-fun z_0_30_5 () Bool)
(declare-fun z_2_30_4 () Bool)
(declare-fun z_2_30_5 () Bool)
(declare-fun z_0_31_1 () Bool)
(declare-fun z_2_31_0 () Bool)
(declare-fun z_0_31_2 () Bool)
(declare-fun z_2_31_1 () Bool)
(declare-fun z_0_31_3 () Bool)
(declare-fun z_2_31_2 () Bool)
(declare-fun z_0_31_4 () Bool)
(declare-fun z_2_31_3 () Bool)
(declare-fun z_0_31_5 () Bool)
(declare-fun z_2_31_4 () Bool)
(declare-fun z_0_31_6 () Bool)
(declare-fun z_2_31_5 () Bool)
(declare-fun z_2_31_6 () Bool)
(declare-fun z_0_32_1 () Bool)
(declare-fun z_2_32_0 () Bool)
(declare-fun z_2_32_1 () Bool)
(declare-fun z_0_33_1 () Bool)
(declare-fun z_2_33_0 () Bool)
(declare-fun z_0_33_2 () Bool)
(declare-fun z_2_33_1 () Bool)
(declare-fun z_0_33_3 () Bool)
(declare-fun z_2_33_2 () Bool)
(declare-fun z_0_33_4 () Bool)
(declare-fun z_2_33_3 () Bool)
(declare-fun z_0_33_5 () Bool)
(declare-fun z_2_33_4 () Bool)
(declare-fun z_0_33_6 () Bool)
(declare-fun z_2_33_5 () Bool)
(declare-fun z_2_33_6 () Bool)
(declare-fun z_0_34_1 () Bool)
(declare-fun z_2_34_0 () Bool)
(declare-fun z_0_34_2 () Bool)
(declare-fun z_2_34_1 () Bool)
(declare-fun z_0_34_3 () Bool)
(declare-fun z_2_34_2 () Bool)
(declare-fun z_2_34_3 () Bool)
(declare-fun z_2_35_0 () Bool)
(declare-fun z_0_36_1 () Bool)
(declare-fun z_2_36_0 () Bool)
(declare-fun z_0_36_2 () Bool)
(declare-fun z_2_36_1 () Bool)
(declare-fun z_0_36_3 () Bool)
(declare-fun z_2_36_2 () Bool)
(declare-fun z_0_36_4 () Bool)
(declare-fun z_2_36_3 () Bool)
(declare-fun z_0_36_5 () Bool)
(declare-fun z_2_36_4 () Bool)
(declare-fun z_2_36_5 () Bool)
(declare-fun z_0_37_1 () Bool)
(declare-fun z_2_37_0 () Bool)
(declare-fun z_0_37_2 () Bool)
(declare-fun z_2_37_1 () Bool)
(declare-fun z_0_37_3 () Bool)
(declare-fun z_2_37_2 () Bool)
(declare-fun z_0_37_4 () Bool)
(declare-fun z_2_37_3 () Bool)
(declare-fun z_0_37_5 () Bool)
(declare-fun z_2_37_4 () Bool)
(declare-fun z_2_37_5 () Bool)
(declare-fun z_0_38_1 () Bool)
(declare-fun z_2_38_0 () Bool)
(declare-fun z_0_38_2 () Bool)
(declare-fun z_2_38_1 () Bool)
(declare-fun z_0_38_3 () Bool)
(declare-fun z_2_38_2 () Bool)
(declare-fun z_0_38_4 () Bool)
(declare-fun z_2_38_3 () Bool)
(declare-fun z_2_38_4 () Bool)
(declare-fun z_0_39_1 () Bool)
(declare-fun z_2_39_0 () Bool)
(declare-fun z_0_39_2 () Bool)
(declare-fun z_2_39_1 () Bool)
(declare-fun z_0_39_3 () Bool)
(declare-fun z_2_39_2 () Bool)
(declare-fun z_0_39_4 () Bool)
(declare-fun z_2_39_3 () Bool)
(declare-fun z_2_39_4 () Bool)
(declare-fun z_0_40_1 () Bool)
(declare-fun z_2_40_0 () Bool)
(declare-fun z_0_40_2 () Bool)
(declare-fun z_2_40_1 () Bool)
(declare-fun z_0_40_3 () Bool)
(declare-fun z_2_40_2 () Bool)
(declare-fun z_0_40_4 () Bool)
(declare-fun z_2_40_3 () Bool)
(declare-fun z_0_40_5 () Bool)
(declare-fun z_2_40_4 () Bool)
(declare-fun z_0_40_6 () Bool)
(declare-fun z_2_40_5 () Bool)
(declare-fun z_2_40_6 () Bool)
(declare-fun z_0_41_1 () Bool)
(declare-fun z_2_41_0 () Bool)
(declare-fun z_0_41_2 () Bool)
(declare-fun z_2_41_1 () Bool)
(declare-fun z_2_41_2 () Bool)
(declare-fun z_0_42_1 () Bool)
(declare-fun z_2_42_0 () Bool)
(declare-fun z_0_42_2 () Bool)
(declare-fun z_2_42_1 () Bool)
(declare-fun z_0_42_3 () Bool)
(declare-fun z_2_42_2 () Bool)
(declare-fun z_0_42_4 () Bool)
(declare-fun z_2_42_3 () Bool)
(declare-fun z_0_42_5 () Bool)
(declare-fun z_2_42_4 () Bool)
(declare-fun z_0_42_6 () Bool)
(declare-fun z_2_42_5 () Bool)
(declare-fun z_2_42_6 () Bool)
(declare-fun z_0_43_1 () Bool)
(declare-fun z_2_43_0 () Bool)
(declare-fun z_0_43_2 () Bool)
(declare-fun z_2_43_1 () Bool)
(declare-fun z_0_43_3 () Bool)
(declare-fun z_2_43_2 () Bool)
(declare-fun z_0_43_4 () Bool)
(declare-fun z_2_43_3 () Bool)
(declare-fun z_0_43_5 () Bool)
(declare-fun z_2_43_4 () Bool)
(declare-fun z_2_43_5 () Bool)
(declare-fun z_0_44_1 () Bool)
(declare-fun z_2_44_0 () Bool)
(declare-fun z_2_44_1 () Bool)
(declare-fun z_0_45_1 () Bool)
(declare-fun z_2_45_0 () Bool)
(declare-fun z_0_45_2 () Bool)
(declare-fun z_2_45_1 () Bool)
(declare-fun z_0_45_3 () Bool)
(declare-fun z_2_45_2 () Bool)
(declare-fun z_0_45_4 () Bool)
(declare-fun z_2_45_3 () Bool)
(declare-fun z_2_45_4 () Bool)
(declare-fun z_0_46_1 () Bool)
(declare-fun z_2_46_0 () Bool)
(declare-fun z_2_46_1 () Bool)
(declare-fun z_0_47_1 () Bool)
(declare-fun z_2_47_0 () Bool)
(declare-fun z_0_47_2 () Bool)
(declare-fun z_2_47_1 () Bool)
(declare-fun z_0_47_3 () Bool)
(declare-fun z_2_47_2 () Bool)
(declare-fun z_2_47_3 () Bool)
(declare-fun z_0_48_1 () Bool)
(declare-fun z_2_48_0 () Bool)
(declare-fun z_0_48_2 () Bool)
(declare-fun z_2_48_1 () Bool)
(declare-fun z_0_48_3 () Bool)
(declare-fun z_2_48_2 () Bool)
(declare-fun z_0_48_4 () Bool)
(declare-fun z_2_48_3 () Bool)
(declare-fun z_0_48_5 () Bool)
(declare-fun z_2_48_4 () Bool)
(declare-fun z_0_48_6 () Bool)
(declare-fun z_2_48_5 () Bool)
(declare-fun z_2_48_6 () Bool)
(declare-fun z_0_49_1 () Bool)
(declare-fun z_2_49_0 () Bool)
(declare-fun z_0_49_2 () Bool)
(declare-fun z_2_49_1 () Bool)
(declare-fun z_0_49_3 () Bool)
(declare-fun z_2_49_2 () Bool)
(declare-fun z_0_49_4 () Bool)
(declare-fun z_2_49_3 () Bool)
(declare-fun z_2_49_4 () Bool)
(declare-fun x_2_p () Bool)
(declare-fun x_2_-> () Bool)
(declare-fun x_2_U () Bool)
(declare-fun x_2_v () Bool)
(declare-fun x_2_& () Bool)
(declare-fun x_2_X () Bool)
(declare-fun x_2_! () Bool)
(declare-fun x_2_F () Bool)
(declare-fun x_2_G () Bool)
(assert
 (= z_0_0_0 true))
(assert
 (= z_0_1_0 true))
(assert
 (= z_0_2_0 true))
(assert
 (= z_0_3_0 true))
(assert
 (= z_0_4_0 true))
(assert
 (= z_0_5_0 true))
(assert
 (= z_0_6_0 true))
(assert
 (= z_0_7_0 true))
(assert
 (= z_0_8_0 true))
(assert
 (= z_0_9_0 true))
(assert
 (= z_0_10_0 true))
(assert
 (= z_0_11_0 true))
(assert
 (= z_0_12_0 true))
(assert
 (= z_0_13_0 true))
(assert
 (= z_0_14_0 true))
(assert
 (= z_0_15_0 true))
(assert
 (= z_0_16_0 true))
(assert
 (= z_0_17_0 true))
(assert
 (= z_0_18_0 true))
(assert
 (= z_0_19_0 true))
(assert
 (= z_0_20_0 true))
(assert
 (= z_0_21_0 true))
(assert
 (= z_0_22_0 true))
(assert
 (= z_0_23_0 true))
(assert
 (= z_0_24_0 true))
(assert
 (= z_0_25_0 false))
(assert
 (= z_0_26_0 false))
(assert
 (= z_0_27_0 false))
(assert
 (= z_0_28_0 false))
(assert
 (= z_0_29_0 false))
(assert
 (= z_0_30_0 false))
(assert
 (= z_0_31_0 false))
(assert
 (= z_0_32_0 false))
(assert
 (= z_0_33_0 false))
(assert
 (= z_0_34_0 false))
(assert
 (= z_0_35_0 false))
(assert
 (= z_0_36_0 false))
(assert
 (= z_0_37_0 false))
(assert
 (= z_0_38_0 false))
(assert
 (= z_0_39_0 false))
(assert
 (= z_0_40_0 false))
(assert
 (= z_0_41_0 false))
(assert
 (= z_0_42_0 false))
(assert
 (= z_0_43_0 false))
(assert
 (= z_0_44_0 false))
(assert
 (= z_0_45_0 false))
(assert
 (= z_0_46_0 false))
(assert
 (= z_0_47_0 false))
(assert
 (= z_0_48_0 false))
(assert
 (= z_0_49_0 false))
(assert
 (= z_0_0_0 (and z_2_0_0)))
(assert
 (= z_0_1_0 (and z_2_1_0)))
(assert
 (= z_0_2_0 (and z_2_2_0)))
(assert
 (= z_0_3_0 (and z_2_3_0)))
(assert
 (= z_0_4_0 (and z_2_4_0)))
(assert
 (= z_0_5_0 (and z_2_5_0)))
(assert
 (= z_0_6_0 (and z_2_6_0)))
(assert
 (= z_0_7_0 (and z_2_7_0)))
(assert
 (= z_0_8_0 (and z_2_8_0)))
(assert
 (= z_0_9_0 (and z_2_9_0)))
(assert
 (= z_0_10_0 (and z_2_10_0)))
(assert
 (= z_0_11_0 (and z_2_11_0)))
(assert
 (= z_0_12_0 (and z_2_12_0)))
(assert
 (= z_0_13_0 (and z_2_13_0)))
(assert
 (= z_0_14_0 (and z_2_14_0)))
(assert
 (= z_0_15_0 (and z_2_15_0)))
(assert
 (= z_0_16_0 (and z_2_16_0)))
(assert
 (= z_0_17_0 (and z_2_17_0)))
(assert
 (= z_0_18_0 (and z_2_18_0)))
(assert
 (= z_0_19_0 (and z_2_19_0)))
(assert
 (= z_0_20_0 (and z_2_20_0)))
(assert
 (= z_0_21_0 (and z_2_21_0)))
(assert
 (= z_0_22_0 (and z_2_22_0)))
(assert
 (= z_0_23_0 (and z_2_23_0)))
(assert
 (= z_0_24_0 (and z_2_24_0)))
(assert
 (= z_0_25_0 (and z_2_25_0 z_0_25_1)))
(assert
 (= z_0_25_1 (and z_2_25_1 z_0_25_2)))
(assert
 (= z_0_25_2 (and z_2_25_2)))
(assert
 (= z_0_26_0 (and z_2_26_0 z_0_26_1)))
(assert
 (= z_0_26_1 (and z_2_26_1 z_0_26_2)))
(assert
 (= z_0_26_2 (and z_2_26_0 z_2_26_1 z_2_26_2)))
(assert
 (= z_0_27_0 (and z_2_27_0 z_0_27_1)))
(assert
 (= z_0_27_1 (and z_2_27_1 z_0_27_2)))
(assert
 (= z_0_27_2 (and z_2_27_2 z_0_27_3)))
(assert
 (= z_0_27_3 (and z_2_27_1 z_2_27_2 z_2_27_3)))
(assert
 (= z_0_28_0 (and z_2_28_0 z_0_28_1)))
(assert
 (= z_0_28_1 (and z_2_28_1 z_0_28_2)))
(assert
 (= z_0_28_2 (and z_2_28_2 z_0_28_3)))
(assert
 (= z_0_28_3 (and z_2_28_2 z_2_28_3)))
(assert
 (= z_0_29_0 (and z_2_29_0 z_0_29_1)))
(assert
 (= z_0_29_1 (and z_2_29_1 z_0_29_2)))
(assert
 (= z_0_29_2 (and z_2_29_2 z_0_29_3)))
(assert
 (= z_0_29_3 (and z_2_29_3 z_0_29_4)))
(assert
 (= z_0_29_4 (and z_2_29_4 z_0_29_5)))
(assert
 (= z_0_29_5 (and z_2_29_5 z_0_29_6)))
(assert
 (= z_0_29_6 (and z_2_29_6 z_0_29_7)))
(assert
 (= z_0_29_7 (and z_2_29_4 z_2_29_5 z_2_29_6 z_2_29_7)))
(assert
 (= z_0_30_0 (and z_2_30_0 z_0_30_1)))
(assert
 (= z_0_30_1 (and z_2_30_1 z_0_30_2)))
(assert
 (= z_0_30_2 (and z_2_30_2 z_0_30_3)))
(assert
 (= z_0_30_3 (and z_2_30_3 z_0_30_4)))
(assert
 (= z_0_30_4 (and z_2_30_4 z_0_30_5)))
(assert
 (= z_0_30_5 (and z_2_30_2 z_2_30_3 z_2_30_4 z_2_30_5)))
(assert
 (= z_0_31_0 (and z_2_31_0 z_0_31_1)))
(assert
 (= z_0_31_1 (and z_2_31_1 z_0_31_2)))
(assert
 (= z_0_31_2 (and z_2_31_2 z_0_31_3)))
(assert
 (= z_0_31_3 (and z_2_31_3 z_0_31_4)))
(assert
 (= z_0_31_4 (and z_2_31_4 z_0_31_5)))
(assert
 (= z_0_31_5 (and z_2_31_5 z_0_31_6)))
(assert
 (= z_0_31_6 (and z_2_31_3 z_2_31_4 z_2_31_5 z_2_31_6)))
(assert
 (= z_0_32_0 (and z_2_32_0 z_0_32_1)))
(assert
 (= z_0_32_1 (and z_2_32_1)))
(assert
 (= z_0_33_0 (and z_2_33_0 z_0_33_1)))
(assert
 (= z_0_33_1 (and z_2_33_1 z_0_33_2)))
(assert
 (= z_0_33_2 (and z_2_33_2 z_0_33_3)))
(assert
 (= z_0_33_3 (and z_2_33_3 z_0_33_4)))
(assert
 (= z_0_33_4 (and z_2_33_4 z_0_33_5)))
(assert
 (= z_0_33_5 (and z_2_33_5 z_0_33_6)))
(assert
 (= z_0_33_6 (and z_2_33_3 z_2_33_4 z_2_33_5 z_2_33_6)))
(assert
 (= z_0_34_0 (and z_2_34_0 z_0_34_1)))
(assert
 (= z_0_34_1 (and z_2_34_1 z_0_34_2)))
(assert
 (= z_0_34_2 (and z_2_34_2 z_0_34_3)))
(assert
 (= z_0_34_3 (and z_2_34_3)))
(assert
 (= z_0_35_0 (and z_2_35_0)))
(assert
 (= z_0_36_0 (and z_2_36_0 z_0_36_1)))
(assert
 (= z_0_36_1 (and z_2_36_1 z_0_36_2)))
(assert
 (= z_0_36_2 (and z_2_36_2 z_0_36_3)))
(assert
 (= z_0_36_3 (and z_2_36_3 z_0_36_4)))
(assert
 (= z_0_36_4 (and z_2_36_4 z_0_36_5)))
(assert
 (= z_0_36_5 (and z_2_36_2 z_2_36_3 z_2_36_4 z_2_36_5)))
(assert
 (= z_0_37_0 (and z_2_37_0 z_0_37_1)))
(assert
 (= z_0_37_1 (and z_2_37_1 z_0_37_2)))
(assert
 (= z_0_37_2 (and z_2_37_2 z_0_37_3)))
(assert
 (= z_0_37_3 (and z_2_37_3 z_0_37_4)))
(assert
 (= z_0_37_4 (and z_2_37_4 z_0_37_5)))
(assert
 (= z_0_37_5 (and z_2_37_2 z_2_37_3 z_2_37_4 z_2_37_5)))
(assert
 (= z_0_38_0 (and z_2_38_0 z_0_38_1)))
(assert
 (= z_0_38_1 (and z_2_38_1 z_0_38_2)))
(assert
 (= z_0_38_2 (and z_2_38_2 z_0_38_3)))
(assert
 (= z_0_38_3 (and z_2_38_3 z_0_38_4)))
(assert
 (= z_0_38_4 (and z_2_38_3 z_2_38_4)))
(assert
 (= z_0_39_0 (and z_2_39_0 z_0_39_1)))
(assert
 (= z_0_39_1 (and z_2_39_1 z_0_39_2)))
(assert
 (= z_0_39_2 (and z_2_39_2 z_0_39_3)))
(assert
 (= z_0_39_3 (and z_2_39_3 z_0_39_4)))
(assert
 (= z_0_39_4 (and z_2_39_1 z_2_39_2 z_2_39_3 z_2_39_4)))
(assert
 (= z_0_40_0 (and z_2_40_0 z_0_40_1)))
(assert
 (= z_0_40_1 (and z_2_40_1 z_0_40_2)))
(assert
 (= z_0_40_2 (and z_2_40_2 z_0_40_3)))
(assert
 (= z_0_40_3 (and z_2_40_3 z_0_40_4)))
(assert
 (= z_0_40_4 (and z_2_40_4 z_0_40_5)))
(assert
 (= z_0_40_5 (and z_2_40_5 z_0_40_6)))
(assert
 (= z_0_40_6 (and z_2_40_3 z_2_40_4 z_2_40_5 z_2_40_6)))
(assert
 (= z_0_41_0 (and z_2_41_0 z_0_41_1)))
(assert
 (= z_0_41_1 (and z_2_41_1 z_0_41_2)))
(assert
 (= z_0_41_2 (and z_2_41_2)))
(assert
 (= z_0_42_0 (and z_2_42_0 z_0_42_1)))
(assert
 (= z_0_42_1 (and z_2_42_1 z_0_42_2)))
(assert
 (= z_0_42_2 (and z_2_42_2 z_0_42_3)))
(assert
 (= z_0_42_3 (and z_2_42_3 z_0_42_4)))
(assert
 (= z_0_42_4 (and z_2_42_4 z_0_42_5)))
(assert
 (= z_0_42_5 (and z_2_42_5 z_0_42_6)))
(assert
 (= z_0_42_6 (and z_2_42_4 z_2_42_5 z_2_42_6)))
(assert
 (= z_0_43_0 (and z_2_43_0 z_0_43_1)))
(assert
 (= z_0_43_1 (and z_2_43_1 z_0_43_2)))
(assert
 (= z_0_43_2 (and z_2_43_2 z_0_43_3)))
(assert
 (= z_0_43_3 (and z_2_43_3 z_0_43_4)))
(assert
 (= z_0_43_4 (and z_2_43_4 z_0_43_5)))
(assert
 (= z_0_43_5 (and z_2_43_3 z_2_43_4 z_2_43_5)))
(assert
 (= z_0_44_0 (and z_2_44_0 z_0_44_1)))
(assert
 (= z_0_44_1 (and z_2_44_1)))
(assert
 (= z_0_45_0 (and z_2_45_0 z_0_45_1)))
(assert
 (= z_0_45_1 (and z_2_45_1 z_0_45_2)))
(assert
 (= z_0_45_2 (and z_2_45_2 z_0_45_3)))
(assert
 (= z_0_45_3 (and z_2_45_3 z_0_45_4)))
(assert
 (= z_0_45_4 (and z_2_45_3 z_2_45_4)))
(assert
 (= z_0_46_0 (and z_2_46_0 z_0_46_1)))
(assert
 (= z_0_46_1 (and z_2_46_0 z_2_46_1)))
(assert
 (= z_0_47_0 (and z_2_47_0 z_0_47_1)))
(assert
 (= z_0_47_1 (and z_2_47_1 z_0_47_2)))
(assert
 (= z_0_47_2 (and z_2_47_2 z_0_47_3)))
(assert
 (= z_0_47_3 (and z_2_47_2 z_2_47_3)))
(assert
 (= z_0_48_0 (and z_2_48_0 z_0_48_1)))
(assert
 (= z_0_48_1 (and z_2_48_1 z_0_48_2)))
(assert
 (= z_0_48_2 (and z_2_48_2 z_0_48_3)))
(assert
 (= z_0_48_3 (and z_2_48_3 z_0_48_4)))
(assert
 (= z_0_48_4 (and z_2_48_4 z_0_48_5)))
(assert
 (= z_0_48_5 (and z_2_48_5 z_0_48_6)))
(assert
 (= z_0_48_6 (and z_2_48_4 z_2_48_5 z_2_48_6)))
(assert
 (= z_0_49_0 (and z_2_49_0 z_0_49_1)))
(assert
 (= z_0_49_1 (and z_2_49_1 z_0_49_2)))
(assert
 (= z_0_49_2 (and z_2_49_2 z_0_49_3)))
(assert
 (= z_0_49_3 (and z_2_49_3 z_0_49_4)))
(assert
 (= z_0_49_4 (and z_2_49_2 z_2_49_3 z_2_49_4)))
(assert
 (and true true))
(assert
 (=> x_2_p z_2_0_0))
(assert
 (=> x_2_p z_2_1_0))
(assert
 (=> x_2_p z_2_2_0))
(assert
 (=> x_2_p z_2_3_0))
(assert
 (=> x_2_p z_2_4_0))
(assert
 (=> x_2_p z_2_5_0))
(assert
 (=> x_2_p z_2_6_0))
(assert
 (=> x_2_p z_2_7_0))
(assert
 (=> x_2_p z_2_8_0))
(assert
 (=> x_2_p z_2_9_0))
(assert
 (=> x_2_p z_2_10_0))
(assert
 (=> x_2_p z_2_11_0))
(assert
 (=> x_2_p z_2_12_0))
(assert
 (=> x_2_p z_2_13_0))
(assert
 (=> x_2_p z_2_14_0))
(assert
 (=> x_2_p z_2_15_0))
(assert
 (=> x_2_p z_2_16_0))
(assert
 (=> x_2_p z_2_17_0))
(assert
 (=> x_2_p z_2_18_0))
(assert
 (=> x_2_p z_2_19_0))
(assert
 (=> x_2_p z_2_20_0))
(assert
 (=> x_2_p z_2_21_0))
(assert
 (=> x_2_p z_2_22_0))
(assert
 (=> x_2_p z_2_23_0))
(assert
 (=> x_2_p z_2_24_0))
(assert
 (=> x_2_p z_2_25_0))
(assert
 (let (($x5074 (not z_2_25_1)))
 (=> x_2_p $x5074)))
(assert
 (=> x_2_p z_2_25_2))
(assert
 (=> x_2_p z_2_26_0))
(assert
 (=> x_2_p z_2_26_1))
(assert
 (let (($x5083 (not z_2_26_2)))
 (=> x_2_p $x5083)))
(assert
 (let (($x5086 (not z_2_27_0)))
 (=> x_2_p $x5086)))
(assert
 (let (($x5089 (not z_2_27_1)))
 (=> x_2_p $x5089)))
(assert
 (=> x_2_p z_2_27_2))
(assert
 (=> x_2_p z_2_27_3))
(assert
 (let (($x5096 (not z_2_28_0)))
 (=> x_2_p $x5096)))
(assert
 (let (($x5099 (not z_2_28_1)))
 (=> x_2_p $x5099)))
(assert
 (let (($x5102 (not z_2_28_2)))
 (=> x_2_p $x5102)))
(assert
 (=> x_2_p z_2_28_3))
(assert
 (let (($x5107 (not z_2_29_0)))
 (=> x_2_p $x5107)))
(assert
 (let (($x5110 (not z_2_29_1)))
 (=> x_2_p $x5110)))
(assert
 (let (($x5113 (not z_2_29_2)))
 (=> x_2_p $x5113)))
(assert
 (let (($x5116 (not z_2_29_3)))
 (=> x_2_p $x5116)))
(assert
 (let (($x5119 (not z_2_29_4)))
 (=> x_2_p $x5119)))
(assert
 (let (($x5122 (not z_2_29_5)))
 (=> x_2_p $x5122)))
(assert
 (let (($x5125 (not z_2_29_6)))
 (=> x_2_p $x5125)))
(assert
 (=> x_2_p z_2_29_7))
(assert
 (let (($x5130 (not z_2_30_0)))
 (=> x_2_p $x5130)))
(assert
 (=> x_2_p z_2_30_1))
(assert
 (let (($x5135 (not z_2_30_2)))
 (=> x_2_p $x5135)))
(assert
 (let (($x5138 (not z_2_30_3)))
 (=> x_2_p $x5138)))
(assert
 (=> x_2_p z_2_30_4))
(assert
 (let (($x5143 (not z_2_30_5)))
 (=> x_2_p $x5143)))
(assert
 (let (($x5146 (not z_2_31_0)))
 (=> x_2_p $x5146)))
(assert
 (=> x_2_p z_2_31_1))
(assert
 (let (($x5151 (not z_2_31_2)))
 (=> x_2_p $x5151)))
(assert
 (let (($x5154 (not z_2_31_3)))
 (=> x_2_p $x5154)))
(assert
 (let (($x5157 (not z_2_31_4)))
 (=> x_2_p $x5157)))
(assert
 (=> x_2_p z_2_31_5))
(assert
 (=> x_2_p z_2_31_6))
(assert
 (=> x_2_p z_2_32_0))
(assert
 (let (($x5166 (not z_2_32_1)))
 (=> x_2_p $x5166)))
(assert
 (=> x_2_p z_2_33_0))
(assert
 (let (($x5171 (not z_2_33_1)))
 (=> x_2_p $x5171)))
(assert
 (=> x_2_p z_2_33_2))
(assert
 (let (($x5176 (not z_2_33_3)))
 (=> x_2_p $x5176)))
(assert
 (let (($x5179 (not z_2_33_4)))
 (=> x_2_p $x5179)))
(assert
 (=> x_2_p z_2_33_5))
(assert
 (let (($x5184 (not z_2_33_6)))
 (=> x_2_p $x5184)))
(assert
 (=> x_2_p z_2_34_0))
(assert
 (let (($x5189 (not z_2_34_1)))
 (=> x_2_p $x5189)))
(assert
 (=> x_2_p z_2_34_2))
(assert
 (let (($x5194 (not z_2_34_3)))
 (=> x_2_p $x5194)))
(assert
 (let (($x5197 (not z_2_35_0)))
 (=> x_2_p $x5197)))
(assert
 (let (($x5200 (not z_2_36_0)))
 (=> x_2_p $x5200)))
(assert
 (=> x_2_p z_2_36_1))
(assert
 (let (($x5205 (not z_2_36_2)))
 (=> x_2_p $x5205)))
(assert
 (=> x_2_p z_2_36_3))
(assert
 (=> x_2_p z_2_36_4))
(assert
 (let (($x5212 (not z_2_36_5)))
 (=> x_2_p $x5212)))
(assert
 (let (($x5215 (not z_2_37_0)))
 (=> x_2_p $x5215)))
(assert
 (=> x_2_p z_2_37_1))
(assert
 (let (($x5220 (not z_2_37_2)))
 (=> x_2_p $x5220)))
(assert
 (=> x_2_p z_2_37_3))
(assert
 (=> x_2_p z_2_37_4))
(assert
 (let (($x5227 (not z_2_37_5)))
 (=> x_2_p $x5227)))
(assert
 (let (($x5230 (not z_2_38_0)))
 (=> x_2_p $x5230)))
(assert
 (let (($x5233 (not z_2_38_1)))
 (=> x_2_p $x5233)))
(assert
 (let (($x5236 (not z_2_38_2)))
 (=> x_2_p $x5236)))
(assert
 (let (($x5239 (not z_2_38_3)))
 (=> x_2_p $x5239)))
(assert
 (=> x_2_p z_2_38_4))
(assert
 (=> x_2_p z_2_39_0))
(assert
 (let (($x5246 (not z_2_39_1)))
 (=> x_2_p $x5246)))
(assert
 (=> x_2_p z_2_39_2))
(assert
 (let (($x5251 (not z_2_39_3)))
 (=> x_2_p $x5251)))
(assert
 (let (($x5254 (not z_2_39_4)))
 (=> x_2_p $x5254)))
(assert
 (=> x_2_p z_2_40_0))
(assert
 (=> x_2_p z_2_40_1))
(assert
 (=> x_2_p z_2_40_2))
(assert
 (let (($x5263 (not z_2_40_3)))
 (=> x_2_p $x5263)))
(assert
 (let (($x5266 (not z_2_40_4)))
 (=> x_2_p $x5266)))
(assert
 (=> x_2_p z_2_40_5))
(assert
 (let (($x5271 (not z_2_40_6)))
 (=> x_2_p $x5271)))
(assert
 (=> x_2_p z_2_41_0))
(assert
 (let (($x5276 (not z_2_41_1)))
 (=> x_2_p $x5276)))
(assert
 (=> x_2_p z_2_41_2))
(assert
 (let (($x5281 (not z_2_42_0)))
 (=> x_2_p $x5281)))
(assert
 (let (($x5284 (not z_2_42_1)))
 (=> x_2_p $x5284)))
(assert
 (let (($x5287 (not z_2_42_2)))
 (=> x_2_p $x5287)))
(assert
 (let (($x5290 (not z_2_42_3)))
 (=> x_2_p $x5290)))
(assert
 (let (($x5293 (not z_2_42_4)))
 (=> x_2_p $x5293)))
(assert
 (=> x_2_p z_2_42_5))
(assert
 (=> x_2_p z_2_42_6))
(assert
 (let (($x5300 (not z_2_43_0)))
 (=> x_2_p $x5300)))
(assert
 (let (($x5303 (not z_2_43_1)))
 (=> x_2_p $x5303)))
(assert
 (let (($x5306 (not z_2_43_2)))
 (=> x_2_p $x5306)))
(assert
 (let (($x5309 (not z_2_43_3)))
 (=> x_2_p $x5309)))
(assert
 (=> x_2_p z_2_43_4))
(assert
 (=> x_2_p z_2_43_5))
(assert
 (=> x_2_p z_2_44_0))
(assert
 (let (($x5318 (not z_2_44_1)))
 (=> x_2_p $x5318)))
(assert
 (let (($x5321 (not z_2_45_0)))
 (=> x_2_p $x5321)))
(assert
 (let (($x5324 (not z_2_45_1)))
 (=> x_2_p $x5324)))
(assert
 (let (($x5327 (not z_2_45_2)))
 (=> x_2_p $x5327)))
(assert
 (let (($x5330 (not z_2_45_3)))
 (=> x_2_p $x5330)))
(assert
 (=> x_2_p z_2_45_4))
(assert
 (let (($x5335 (not z_2_46_0)))
 (=> x_2_p $x5335)))
(assert
 (=> x_2_p z_2_46_1))
(assert
 (=> x_2_p z_2_47_0))
(assert
 (let (($x5342 (not z_2_47_1)))
 (=> x_2_p $x5342)))
(assert
 (let (($x5345 (not z_2_47_2)))
 (=> x_2_p $x5345)))
(assert
 (=> x_2_p z_2_47_3))
(assert
 (=> x_2_p z_2_48_0))
(assert
 (=> x_2_p z_2_48_1))
(assert
 (let (($x5354 (not z_2_48_2)))
 (=> x_2_p $x5354)))
(assert
 (=> x_2_p z_2_48_3))
(assert
 (let (($x5359 (not z_2_48_4)))
 (=> x_2_p $x5359)))
(assert
 (=> x_2_p z_2_48_5))
(assert
 (let (($x5364 (not z_2_48_6)))
 (=> x_2_p $x5364)))
(assert
 (let (($x5367 (not z_2_49_0)))
 (=> x_2_p $x5367)))
(assert
 (=> x_2_p z_2_49_1))
(assert
 (=> x_2_p z_2_49_2))
(assert
 (let (($x5374 (not z_2_49_3)))
 (=> x_2_p $x5374)))
(assert
 (let (($x5377 (not z_2_49_4)))
 (=> x_2_p $x5377)))
(assert
 (or x_2_p))
(assert
 (let (($x5019 (not x_2_->)))
 (let (($x5017 (not x_2_U)))
 (let (($x5015 (not x_2_v)))
 (let (($x5013 (not x_2_&)))
 (let (($x5011 (not x_2_X)))
 (let (($x5009 (not x_2_!)))
 (let (($x5007 (not x_2_F)))
 (let (($x5005 (not x_2_G)))
 (and $x5005 $x5007 $x5009 $x5011 $x5013 $x5015 $x5017 $x5019))))))))))
(check-sat)

